N = 13;
H = 5;
T = 2;

avail = array3d(1..N, 1..H, 1..T, [1, 9, 5, 6, 9, 10, 3, 8, 6, 0, 3, 10, 9, 1, 4, 1, 8, 6, 1, 9, 6, 10, 7, 3, 10, 10, 2, 5, 0, 9, 8, 6, 8, 8, 4, 2, 6, 0, 7, 3, 5, 3, 9, 7, 2, 2, 2, 4, 10, 10, 0, 1, 6, 8, 3, 5, 7, 1, 8, 1, 5, 5, 6, 0, 9, 3, 0, 0, 2, 1, 1, 8, 0, 9, 8, 1, 7, 0, 8, 0, 8, 6, 9, 9, 8, 6, 0, 0, 4, 5, 10, 8, 1, 1, 5, 4, 9, 5, 9, 4, 2, 1, 3, 3, 6, 1, 10, 9, 4, 7, 6, 4, 10, 8, 3, 2, 3, 10, 4, 3, 2, 8, 5, 9, 1, 10, 0, 4, 0, 4]);

r = array2d(1..H, 1..T, [1, 2, 7, 5, 3, 7, 3, 4, 2, 1]);
